
Gurobi 10.0.1 (linux64) logging started Sun Nov 26 15:37:27 2023

Set parameter LogFile to value "ArtificialInstance/ExperimentV2/S2T4K3/AdRo/gurobi1.txt"
Gurobi Optimizer version 10.0.1 build v10.0.1rc0 (linux64)

CPU model: AMD EPYC 7H12 64-Core Processor, instruction set [SSE2|AVX|AVX2]
Thread count: 128 physical cores, 128 logical processors, using up to 32 threads

Academic license 656792 - for non-commercial use only - registered to b.___@student.vu.nl
Optimize a model with 12942 rows, 12259 columns and 47550 nonzeros
Model fingerprint: 0xe5dd886c
Variable types: 1 continuous, 12258 integer (12258 binary)
Coefficient statistics:
  Matrix range     [1e+00, 4e+01]
  Objective range  [1e+00, 2e+01]
  Bounds range     [1e+00, 1e+00]
  RHS range        [1e+00, 1e+00]
Presolve removed 4280 rows and 4262 columns
Presolve time: 0.27s
Presolved: 8662 rows, 7997 columns, 31351 nonzeros
Variable types: 1 continuous, 7996 integer (7996 binary)

Root relaxation: objective 6.806966e+01, 3835 iterations, 0.24 seconds (0.19 work units)

    Nodes    |    Current Node    |     Objective Bounds      |     Work
 Expl Unexpl |  Obj  Depth IntInf | Incumbent    BestBd   Gap | It/Node Time

     0     0   68.06966    0   33          -   68.06966      -     -    0s
H    0     0                      95.7307663   68.06966  28.9%     -    0s
H    0     0                      70.5821369   68.06966  3.56%     -    0s
H    0     0                      70.1272453   68.06966  2.93%     -    0s

Cutting planes:
  Gomory: 1
  Zero half: 1
  RLT: 4

Explored 1 nodes (5278 simplex iterations) in 0.71 seconds (0.49 work units)
Thread count was 32 (of 128 available processors)

Solution count 3: 70.1272 70.5821 95.7308 

Optimal solution found (tolerance 1.00e-04)
Best objective 7.012724532181e+01, best bound 7.012724532181e+01, gap 0.0000%
